WARNING: for repeatability, setting FPU to use double precision
============================[ Problem Statistics ]=============================
|                                                                             |
|  Number of variables:      20094661                                         |
|  Number of clauses:        81050919                                         |
|  Parse time:                  19.83 s                                       |
|                                                                             |
c ============================[ Search Statistics ]==============================
c | Conflicts |          ORIGINAL         |          LEARNT          | Progress |
c |           |    Vars  Clauses Literals |    Limit  Clauses Lit/Cl |          |
c ===============================================================================
c Switched to VSIDS.
c Switched to LRB.
c Switched to VSIDS.
c Switched to LRB.
c Switched to VSIDS.
c Switched to LRB.
c Switched to VSIDS.
c Switched to LRB.
c ===============================================================================
restarts                  : 126
conflicts                 : 14398          (4 /sec)
decisions                 : 15543161       (0.00 % random) (4726 /sec)
propagations              : 6421352112     (1952443 /sec)
conflict literals         : 11011247       (2.36 % deleted)

conflicts w/ DIP found    : 11239          (78.06 % of conflicts)
conflicts w/ dangerous DIP: 0              (0.00 % of conflicts)
conflicts w/ DIP-learning : 25             (0.17 % of conflicts)
decisions on ext vars     : 0              (0.00 % of decisions)
total ext vars            : 9           
tried delete ext vars     : 7           
deleted ext vars          : 7           
max ext vars              : 9           

Memory used               : 10820.00 MB
CPU time                  : 3288.88 s
DIP computation time      : 0.325491 s (0.01 % of total time)
ER_sel time               : 0.041187 s
ER_add time               : 0.00045 s
ER_delC time              : 0 s
ER_delV time              : 0.100477 s
ER_sub time               : 0.148237 s
ER_stat time              : 0 s

INDETERMINATE
